
Gurobi 9.1.2 (linux64, gurobi_cl) logging started Fri Jul 30 13:54:40 2021

Using license file /opt/gurobi/gurobi.lic
Set parameter TimeLimit to value 600
Set parameter Heuristics to value 0
Set parameter LogFile to value 912-Heuristics0-glass4-2.log
Set parameter Seed to value 2

Gurobi Optimizer version 9.1.2 build v9.1.2rc0 (linux64)
Copyright (c) 2021, Gurobi Optimization, LLC

Read MPS format model from file /nfs/models/mip/glass4.mps.bz2
Reading time = 0.00 seconds
glass4: 396 rows, 322 columns, 1815 nonzeros
Thread count: 4 physical cores, 8 logical processors, using up to 8 threads
Optimize a model with 396 rows, 322 columns and 1815 nonzeros
Model fingerprint: 0x0a9d9037
Variable types: 20 continuous, 302 integer (0 binary)
Coefficient statistics:
  Matrix range     [1e+00, 8e+06]
  Objective range  [1e+00, 1e+06]
  Bounds range     [1e+00, 8e+02]
  RHS range        [1e+00, 8e+06]
Presolve removed 6 rows and 6 columns
Presolve time: 0.00s
Presolved: 390 rows, 316 columns, 1803 nonzeros
Variable types: 19 continuous, 297 integer (297 binary)

Root relaxation: objective 8.000024e+08, 72 iterations, 0.00 seconds

    Nodes    |    Current Node    |     Objective Bounds      |     Work
 Expl Unexpl |  Obj  Depth IntInf | Incumbent    BestBd   Gap | It/Node Time

     0     0 8.0000e+08    0   72          - 8.0000e+08      -     -    0s
     0     0 8.0000e+08    0   72          - 8.0000e+08      -     -    0s
     0     0 8.0000e+08    0   75          - 8.0000e+08      -     -    0s
     0     0 8.0000e+08    0   75          - 8.0000e+08      -     -    0s
     0     2 8.0000e+08    0   75          - 8.0000e+08      -     -    0s
*  596  1133             167    3.000024e+09 8.0000e+08  73.3%   3.6    0s
*  611  1132             180    2.800023e+09 8.0000e+08  71.4%   3.6    0s
*  928  1132             168    2.600020e+09 8.0000e+08  69.2%   3.6    0s
* 1487  1390             125    2.500019e+09 8.0000e+08  68.0%   4.1    0s
* 2249  1727              84    2.450023e+09 8.0000e+08  67.3%   4.8    0s
* 2253  1656              81    2.200023e+09 8.0000e+08  63.6%   4.8    0s
* 2255  1594              81    2.200022e+09 8.0000e+08  63.6%   4.8    0s
* 3157  2060             138    2.200022e+09 8.0000e+08  63.6%   4.6    0s
* 3160  2003             139    2.200021e+09 8.0000e+08  63.6%   4.6    0s
* 4066  2537             106    2.186231e+09 8.0000e+08  63.4%   4.5    0s
* 4674  2549              96    2.000020e+09 8.0000e+08  60.0%   4.5    0s
* 5153  3023              84    1.916686e+09 8.0000e+08  58.3%   4.6    0s
* 6129  3622             101    1.911128e+09 8.0000e+08  58.1%   4.7    0s
* 6441  3582             116    1.900017e+09 8.0000e+08  57.9%   4.6    0s
* 6442  3517             115    1.850017e+09 8.0000e+08  56.8%   4.6    0s
*11401  7050              75    1.833349e+09 8.0000e+08  56.4%   4.3    0s
*12718  8584             124    1.800017e+09 8.0000e+08  55.6%   4.3    0s
*12719  8584             124    1.800017e+09 8.0000e+08  55.6%   4.3    0s
*13761  8771              74    1.800016e+09 8.0000e+08  55.6%   4.3    0s
*14558  8675             124    1.700015e+09 8.0000e+08  52.9%   4.3    0s
*20493 13605              87    1.700014e+09 8.0000e+08  52.9%   4.5    0s
 29670 18918 1.7000e+09   54  113 1.7000e+09 8.5522e+08  49.7%   4.7    5s
 29955 19124 1.0000e+09   42   89 1.7000e+09 8.6382e+08  49.2%   5.0   10s
*52022 25689             337    1.686683e+09 9.0001e+08  46.6%   5.3   14s
*59451 26337             332    1.684016e+09 9.0001e+08  46.6%   5.3   14s
*67213 27081             294    1.633349e+09 9.0001e+08  44.9%   5.2   14s
 71291 26021 1.4000e+09  280   40 1.6333e+09 9.0001e+08  44.9%   5.2   15s
*73299 25165             367    1.630452e+09 9.0001e+08  44.8%   5.3   15s
*73304 24243             367    1.622076e+09 9.0001e+08  44.5%   5.3   15s
*73306 23534             366    1.600017e+09 9.0001e+08  43.8%   5.3   15s
*79428 27651             333    1.600014e+09 9.0001e+08  43.7%   5.2   15s
*88496 30294             328    1.600014e+09 9.5001e+08  40.6%   5.3   15s
*91091 24953             334    1.500014e+09 9.5129e+08  36.6%   5.3   16s
*96148 25717             329    1.500013e+09 9.5249e+08  36.5%   5.3   16s
 171859 53583 infeasible  281      1.5000e+09 1.0000e+09  33.3%   5.5   20s
*217252 66361             320    1.500013e+09 1.1000e+09  26.7%   5.4   22s
*217254 65701             321    1.500013e+09 1.1000e+09  26.7%   5.4   22s
 276705 86053 1.2000e+09  288   42 1.5000e+09 1.1000e+09  26.7%   5.5   25s
*282484 58922             307    1.498607e+09 1.1000e+09  26.6%   5.5   25s
*282487 57625             308    1.466682e+09 1.1000e+09  25.0%   5.5   25s
*324461 52173             305    1.400013e+09 1.1519e+09  17.7%   5.4   27s
 365328 54276 1.4000e+09  267   28 1.4000e+09 1.2000e+09  14.3%   5.5   30s
*436936  8017             318    1.200013e+09 1.2000e+09  0.00%   5.4   33s

Cutting planes:
  Gomory: 9
  Implied bound: 8
  Projected implied bound: 1
  MIR: 25
  Flow cover: 20
  RLT: 3
  Relax-and-lift: 9

Explored 437091 nodes (2352455 simplex iterations) in 33.76 seconds
Thread count was 8 (of 8 available processors)

Solution count 10: 1.20001e+09 1.40001e+09 1.46668e+09 ... 1.60001e+09

Optimal solution found (tolerance 1.00e-04)
Best objective 1.200012600000e+09, best bound 1.200008800000e+09, gap 0.0003%
